125
[25,26,27,28,29,30,31,32,33,34,35,36,37,38,39,40,41,42,43,44,45,46,47,48,49,50,51,52,53,54,55,56,57,58,59,60,61,62,63,64,65,66,67,68,69,70,71,72,73,74,75,76,77,78,79,80,81,82,83,84,85,86,87]
[7,5,10,8,7,7,7,8,10,5,7,9,12,8,10,9,5,6,15,9,4,15,8,8,7,8,14,5,13,7,5,6,9,6,11,9,11,9,6,5,8,9,3,11,10,4,9,7,6,10,9,9,8,9,6,9,9,3,5,6,7,6,7]
